33
100
79	1
78	2
77	1
75	1
68	1
67	2
66	1
63	1
61	1
59	1
58	3
56	1
55	1
49	1
48	4
37	1
36	1
35	3
33	1
31	2
30	1
27	1
26	1
25	1
21	1
20	2
17	1
15	2
14	3
13	3
12	1
11	1
10	2
